0 31 32 13 1 17 31 38 49 27
31 0 16 17 1 30 16 26 2 34
20 23 0 18 44 26 25 37 39 36
14 49 26 0 40 36 5 38 43 23
17 3 14 43 0 1 14 47 42 7
1 15 29 9 4 0 14 49 43 36
34 49 24 4 27 50 0 24 49 15
6 50 14 5 31 34 23 0 23 33
22 42 12 17 12 3 18 35 0 14
27 29 47 29 21 43 17 30 2 0
